
Gurobi 7.5.2 (mac64, Matlab) logging started Tue Aug 20 11:20:15 2019


Gurobi 7.5.2 (mac64) logging started Tue Aug 20 11:20:15 2019


Gurobi 7.5.2 (mac64, Matlab) logging started Tue Aug 20 11:46:30 2019


Gurobi 7.5.2 (mac64) logging started Tue Aug 20 11:46:30 2019


Gurobi 7.5.2 (mac64, Matlab) logging started Tue Aug 20 11:46:58 2019


Gurobi 7.5.2 (mac64) logging started Tue Aug 20 11:46:58 2019


Gurobi 7.5.2 (mac64, Matlab) logging started Tue Aug 20 11:50:44 2019


Gurobi 7.5.2 (mac64) logging started Tue Aug 20 11:50:44 2019


Gurobi 7.5.2 (mac64, Matlab) logging started Tue Aug 20 11:50:48 2019


Gurobi 7.5.2 (mac64) logging started Tue Aug 20 11:50:48 2019


Gurobi 7.5.2 (mac64, Matlab) logging started Tue Aug 20 11:50:52 2019


Gurobi 7.5.2 (mac64) logging started Tue Aug 20 11:50:52 2019


Gurobi 7.5.2 (mac64, Matlab) logging started Tue Aug 20 11:51:55 2019


Gurobi 7.5.2 (mac64) logging started Tue Aug 20 11:51:55 2019


Gurobi 7.5.2 (mac64, Matlab) logging started Tue Aug 20 11:51:58 2019


Gurobi 7.5.2 (mac64) logging started Tue Aug 20 11:51:58 2019


Gurobi 7.5.2 (mac64, Matlab) logging started Tue Aug 20 11:52:07 2019


Gurobi 7.5.2 (mac64) logging started Tue Aug 20 11:52:07 2019


Gurobi 7.5.2 (mac64, Matlab) logging started Tue Aug 20 11:53:22 2019


Gurobi 7.5.2 (mac64) logging started Tue Aug 20 11:53:22 2019


Gurobi 7.5.2 (mac64, Matlab) logging started Tue Aug 20 11:53:24 2019


Gurobi 7.5.2 (mac64) logging started Tue Aug 20 11:53:24 2019


Gurobi 7.5.2 (mac64, Matlab) logging started Tue Aug 20 11:53:27 2019


Gurobi 7.5.2 (mac64) logging started Tue Aug 20 11:53:27 2019


Gurobi 7.5.2 (mac64, Matlab) logging started Tue Aug 20 11:54:41 2019


Gurobi 7.5.2 (mac64) logging started Tue Aug 20 11:54:41 2019


Gurobi 7.5.2 (mac64, Matlab) logging started Tue Aug 20 11:54:46 2019


Gurobi 7.5.2 (mac64) logging started Tue Aug 20 11:54:46 2019


Gurobi 7.5.2 (mac64, Matlab) logging started Tue Aug 20 11:55:12 2019


Gurobi 7.5.2 (mac64) logging started Tue Aug 20 11:55:12 2019


Gurobi 7.5.2 (mac64, Matlab) logging started Tue Aug 20 11:56:28 2019


Gurobi 7.5.2 (mac64) logging started Tue Aug 20 11:56:28 2019


Gurobi 7.5.2 (mac64, Matlab) logging started Tue Aug 20 11:56:32 2019


Gurobi 7.5.2 (mac64) logging started Tue Aug 20 11:56:32 2019


Gurobi 7.5.2 (mac64, Matlab) logging started Tue Aug 20 11:56:38 2019


Gurobi 7.5.2 (mac64) logging started Tue Aug 20 11:56:38 2019


Gurobi 7.5.2 (mac64, Matlab) logging started Tue Aug 20 11:57:54 2019


Gurobi 7.5.2 (mac64) logging started Tue Aug 20 11:57:54 2019


Gurobi 7.5.2 (mac64, Matlab) logging started Tue Aug 20 11:57:55 2019


Gurobi 7.5.2 (mac64) logging started Tue Aug 20 11:57:55 2019


Gurobi 7.5.2 (mac64, Matlab) logging started Tue Aug 20 11:57:59 2019


Gurobi 7.5.2 (mac64) logging started Tue Aug 20 11:57:59 2019


Gurobi 7.5.2 (mac64, Matlab) logging started Tue Aug 20 12:30:51 2019


Gurobi 7.5.2 (mac64) logging started Tue Aug 20 12:30:51 2019


Gurobi 7.5.2 (mac64, Matlab) logging started Tue Aug 20 12:30:54 2019


Gurobi 7.5.2 (mac64) logging started Tue Aug 20 12:30:54 2019


Gurobi 7.5.2 (mac64, Matlab) logging started Tue Aug 20 12:30:58 2019


Gurobi 7.5.2 (mac64) logging started Tue Aug 20 12:30:58 2019


Gurobi 7.5.2 (mac64, Matlab) logging started Tue Aug 20 12:31:45 2019


Gurobi 7.5.2 (mac64) logging started Tue Aug 20 12:31:45 2019


Gurobi 7.5.2 (mac64, Matlab) logging started Tue Aug 20 12:31:48 2019


Gurobi 7.5.2 (mac64) logging started Tue Aug 20 12:31:48 2019


Gurobi 7.5.2 (mac64, Matlab) logging started Tue Aug 20 12:31:57 2019


Gurobi 7.5.2 (mac64) logging started Tue Aug 20 12:31:57 2019


Gurobi 7.5.2 (mac64, Matlab) logging started Tue Aug 20 12:32:46 2019


Gurobi 7.5.2 (mac64) logging started Tue Aug 20 12:32:46 2019


Gurobi 7.5.2 (mac64, Matlab) logging started Tue Aug 20 12:32:49 2019


Gurobi 7.5.2 (mac64) logging started Tue Aug 20 12:32:49 2019


Gurobi 7.5.2 (mac64, Matlab) logging started Tue Aug 20 12:32:52 2019


Gurobi 7.5.2 (mac64) logging started Tue Aug 20 12:32:52 2019


Gurobi 7.5.2 (mac64, Matlab) logging started Tue Aug 20 12:33:41 2019


Gurobi 7.5.2 (mac64) logging started Tue Aug 20 12:33:41 2019


Gurobi 7.5.2 (mac64, Matlab) logging started Tue Aug 20 12:33:45 2019


Gurobi 7.5.2 (mac64) logging started Tue Aug 20 12:33:45 2019


Gurobi 7.5.2 (mac64, Matlab) logging started Tue Aug 20 12:33:48 2019


Gurobi 7.5.2 (mac64) logging started Tue Aug 20 12:33:48 2019


Gurobi 7.5.2 (mac64, Matlab) logging started Tue Aug 20 12:35:04 2019


Gurobi 7.5.2 (mac64) logging started Tue Aug 20 12:35:04 2019


Gurobi 7.5.2 (mac64, Matlab) logging started Tue Aug 20 12:35:06 2019


Gurobi 7.5.2 (mac64) logging started Tue Aug 20 12:35:06 2019


Gurobi 7.5.2 (mac64, Matlab) logging started Tue Aug 20 12:35:09 2019


Gurobi 7.5.2 (mac64) logging started Tue Aug 20 12:35:09 2019


Gurobi 7.5.2 (mac64, Matlab) logging started Tue Aug 20 12:35:55 2019


Gurobi 7.5.2 (mac64) logging started Tue Aug 20 12:35:55 2019


Gurobi 7.5.2 (mac64, Matlab) logging started Tue Aug 20 12:35:57 2019


Gurobi 7.5.2 (mac64) logging started Tue Aug 20 12:35:57 2019


Gurobi 7.5.2 (mac64, Matlab) logging started Tue Aug 20 12:36:00 2019


Gurobi 7.5.2 (mac64) logging started Tue Aug 20 12:36:00 2019


Gurobi 7.5.2 (mac64, Matlab) logging started Tue Aug 20 13:36:30 2019


Gurobi 7.5.2 (mac64) logging started Tue Aug 20 13:36:30 2019


Gurobi 7.5.2 (mac64, Matlab) logging started Tue Aug 20 13:37:06 2019


Gurobi 7.5.2 (mac64) logging started Tue Aug 20 13:37:06 2019


Gurobi 7.5.2 (mac64, Matlab) logging started Tue Aug 20 13:40:12 2019


Gurobi 7.5.2 (mac64) logging started Tue Aug 20 13:40:12 2019


Gurobi 7.5.2 (mac64, Matlab) logging started Tue Aug 20 13:40:15 2019


Gurobi 7.5.2 (mac64) logging started Tue Aug 20 13:40:15 2019


Gurobi 7.5.2 (mac64, Matlab) logging started Tue Aug 20 13:40:19 2019


Gurobi 7.5.2 (mac64) logging started Tue Aug 20 13:40:19 2019

